\ LP format - for model browsing. Use MPS format to capture full model detail.
Maximize
  6 x_1 + 10 x_2 + 6 x_3 + 6 x_4 + 4 x_5 + 7 x_6 + 10 x_7 + 6 x_8 + 3 x_9
   + 9 x_10 + 2 x_11 + 7 x_12 + 7 x_13 + 8 x_14 + 6 x_15 + 10 x_16 + 8 x_17
   + 2 x_18 + 9 x_19 + 6 x_20 + 5 x_21 + 10 x_22 + 5 x_23 + 7 x_24
   + 10 x_25
Subject To
 C_1: 3 x_1 + 6 x_2 + 5 x_3 + 7 x_4 + 5 x_5 + 7 x_6 + 5 x_7 + 6 x_8 + 2 x_9
   + 10 x_10 + 10 x_11 + 8 x_12 + 9 x_13 + 5 x_14 + 2 x_15 + 9 x_16
   + 8 x_17 + 9 x_18 + 8 x_19 + 5 x_20 + 4 x_21 + 7 x_22 + 4 x_23 + 6 x_24
   + 5 x_25 <= 77
 C_2: 10 x_1 + 10 x_2 + 6 x_3 + 4 x_4 + 8 x_5 + 5 x_6 + 6 x_7 + 5 x_8 + x_9
   + 5 x_10 + 2 x_11 + 7 x_12 + 9 x_13 + 7 x_14 + 8 x_15 + 8 x_16 + 6 x_17
   + 8 x_18 + 8 x_19 + 2 x_20 + 9 x_21 + 8 x_22 + 9 x_23 + 7 x_24 + 7 x_25
   <= 82
 C_3: 5 x_1 + 3 x_2 + 3 x_3 + 9 x_4 + 8 x_5 + 8 x_6 + 10 x_7 + 9 x_8
   + 5 x_9 + 3 x_10 + 9 x_11 + 10 x_12 + 10 x_13 + 3 x_14 + 10 x_15
   + 6 x_16 + 4 x_17 + 9 x_18 + 6 x_19 + x_20 + 8 x_21 + 5 x_22 + 8 x_23
   + 5 x_24 + 2 x_25 <= 79
 C_4: 10 x_1 + 4 x_2 + 2 x_3 + 8 x_4 + 2 x_5 + 8 x_6 + 3 x_7 + 4 x_8
   + 3 x_9 + 3 x_10 + 3 x_11 + 10 x_12 + 2 x_13 + 4 x_14 + 6 x_15 + 6 x_16
   + 2 x_17 + 5 x_18 + 5 x_19 + 6 x_20 + 7 x_21 + 3 x_22 + 10 x_23 + 7 x_24
   + 8 x_25 <= 65
 C_5: 2 x_1 + 4 x_2 + 3 x_3 + 9 x_4 + 9 x_5 + 6 x_6 + 10 x_7 + 4 x_8
   + 7 x_9 + 10 x_10 + 5 x_11 + 7 x_12 + 4 x_13 + 9 x_14 + 9 x_15 + 6 x_16
   + 3 x_17 + 10 x_18 + 7 x_19 + 6 x_20 + 5 x_21 + 4 x_22 + 9 x_23 + 2 x_24
   + 10 x_25 <= 80
Bounds
Binaries
 x_1 x_2 x_3 x_4 x_5 x_6 x_7 x_8 x_9 x_10 x_11 x_12 x_13 x_14 x_15 x_16
 x_17 x_18 x_19 x_20 x_21 x_22 x_23 x_24 x_25
End
